Traveling Salesman Problem/TSP_generados/Aleatorio1620390967_11.tsp
NAME: Aleatorio1620390967_11.tsp
COMMENT: Randomly generated scenario
TYPE: TSP
DIMENSION: 11
EDGE_WEIGHT_TYPE: ATT
NODE_COORD_SECTION
1 36.84 49.27
2 40.4 19.8
3 46.01 35.19
4 4.41 17.0
5 26.65 41.86
6 48.97 15.61
7 28.42 44.37
8 34.12 6.97
9 10.04 27.67
10 39.33 4.2
11 3.06 43.15
