Traveling Salesman Problem/TSP_generados/Aleatorio1620390967_11.opt.tour
NAME: Aleatorio1620390967_11.opt.tour
COMMENT: Optimal solution for Aleatorio1620390967_11 (160.40166553274642)
TYPE: TOUR
DIMENSION: 11
TOUR_SECTION
1 7 5 11 9 4 8 10 6 2 3
-1
EOF
